Optimal - objective value 41.00000000
      8 x_1_13                  1                       0
     40 x_2_25                  1                       0
     55 x_3_0                   1                       0
     85 x_4_5                   1                       0
    147 x_5_38                  1                       0
    162 x_6_19                  1                       0
    189 x_7_27                  1                       0
    220 x_8_32                  1                       0
    232 x_9_8                   1                       0
    285 x_10_41                 1                      16
